LAMMPS data file via write_data, version 22 Jul 2025, timestep = 1001, units = real

336 atoms
3 atom types

0 14.97687711 xlo xhi
0 15.80542392 ylo yhi
0 21.23583753 zlo zhi

Masses

1 28.085
2 1.008
3 15.999

Atoms # charge

93 1 4 1.1943730652466569 1.8238914170452614 0.9177504823278256 0 0 0
277 3 -2 2.4705706691424325 1.5605968762434386 20.68859869655336 0 0 -1
301 3 -2 0.6860494179571315 15.44651602894544 2.3358296975190154 0 -1 0
5 1 4 6.127223097772776 2.239612401928604 0.09475645701225184 0 0 0
253 3 -2 7.293224297468232 1.8344534248967415 0.9934621935098016 0 0 0
281 3 -2 10.987858931665832 0.015191756939197061 0.16774595648143262 0 0 0
156 2 -1 13.767475921068737 2.0218989474884808 2.0497181278658387 0 0 0
189 2 -1 12.272896736452813 0.6642020336431299 20.74849063579209 0 0 -1
317 3 -2 1.0017211576858924 2.5218642767832304 1.893155179777251 0 0 0
325 3 -2 4.875782233725178 4.373022424615963 1.776813939782115 0 0 0
316 3 -2 9.12843221661542 5.492512087762907 2.4809395625498833 0 0 0
324 3 -2 12.730910074360823 3.864822988478549 1.4779959045991393 0 0 0
157 2 -1 4.07079610230817 5.983933647621805 3.841609827211855 0 0 0
288 3 -2 3.062885998470093 7.916849617872906 0.5918507874738793 0 0 0
92 1 4 8.094382051139192 6.409938848767502 1.56646927513021 0 0 0
188 2 -1 6.640650232799307 4.5700475875758135 0.08090228707223392 0 0 0
300 3 -2 8.811487927454984 8.351251688894777 2.3941453538783675 0 0 0
276 3 -2 8.915245538725694 6.653461623032909 0.5906327613249344 0 0 0
4 1 4 13.39847868524081 5.470684898287242 0.00019398317705121267 0 0 0
252 3 -2 14.566361030414415 6.510465093686114 0.8899816090126917 0 0 0
124 2 -1 2.30586554156742 8.17540564798733 0.8720747973586158 0 0 0
208 3 -2 3.4133262463070393 10.142180321607986 0.4816129991844654 0 0 0
80 1 4 3.7815655754035546 8.537897227533675 1.0698032381793794 0 0 0
176 2 -1 5.560961668815471 8.756918618596105 3.8438415679906877 0 0 0
180 2 -1 10.204831888355292 10.638100034167152 1.1278776701968223 0 0 0
44 1 4 11.432023086980312 9.318477108262892 0.914955975759825 0 0 0
260 3 -2 10.789447272941924 9.174814907395886 1.552953346901575 0 0 0
28 1 4 13.846829355319 8.431624202655973 2.557031094075211 0 0 0
236 3 -2 13.466725421807835 9.224826632148114 2.1397133794651304 0 0 0
104 2 -1 14.578962820402548 13.351317258135532 20.416826549962558 -1 0 -1
141 2 -1 2.9861901498402657 13.42588043618003 20.422827629234753 0 0 -1
97 2 -1 6.440162482415278 14.783071302795909 0.49467242647469817 0 0 0
140 2 -1 13.569449272537168 13.359618569371232 19.56627397083496 0 0 -1
181 2 -1 13.281177130541689 14.550387489683324 3.220368278477792 -1 0 0
45 1 4 4.567237461760633 14.021296796138689 0.4846579729557991 0 0 0
237 3 -2 5.222399480988218 14.270869892428982 1.5402933455080194 0 0 0
261 3 -2 2.4059585851498952 13.462341843366731 1.526010582199279 0 0 0
29 1 4 6.5775922526542585 0.42348609987229974 1.9364929192188547 0 1 0
125 2 -1 7.31000680068285 14.802991184790335 1.520531195546271 0 0 0
73 1 4 11.744183697875513 14.285453016183062 0.5362792795941972 0 0 0
169 2 -1 10.359196715377267 14.4137527277215 2.9099076724204216 0 0 0
201 3 -2 10.422964576756868 13.837243138685745 0.6919254091710133 0 0 0
21 1 4 6.3496440340622495 0.26332752330435505 5.021860322492322 0 0 0
333 3 -2 6.259216694005808 0.42930077526598487 3.1552855243093627 0 0 0
38 1 4 10.091695896026373 0.5705456619840135 5.5717057075239955 0 0 0
134 2 -1 7.468832976075601 1.3952018300377054 5.546639118213864 0 0 0
118 2 -1 13.283302869072129 1.4780292439160543 6.5614338320066485 0 0 0
53 1 4 1.5202149405723064 3.5872860203495907 3.098693667780735 0 0 0
149 2 -1 1.035048096270734 3.6116190034532973 3.395004974477509 0 0 0
197 3 -2 1.0009645645837355 3.524617617973995 5.33377700217466 0 0 0
61 1 4 5.167844354289245 4.140606270349505 2.348512507402911 0 0 0
229 3 -2 3.8892656397202696 4.124365407537211 2.4004964582676007 0 0 0
309 3 -2 6.0500024503257075 3.886550827060024 4.248296242436826 0 0 0
148 2 -1 10.336758532630443 3.2198700226968504 2.063769660258058 0 0 0
52 1 4 8.85088241132776 3.8164201886292943 2.690075169777656 0 0 0
196 3 -2 9.574696654528603 3.950982266388083 5.25038262218986 0 0 0
228 3 -2 11.268265751329482 4.243000587381583 2.299656988112738 0 0 0
60 1 4 11.842501521344735 3.9402106868917333 2.711980499876545 0 0 0
308 3 -2 12.98538467790767 3.588574254446012 4.142662156857041 0 0 0
35 1 4 2.4729323568149697 7.715922562043266 5.332456688208325 0 0 0
131 2 -1 0.30638945663135875 4.228809915311163 3.21557737711308 0 0 0
115 2 -1 7.01496321437057 5.153187680909637 2.523218386466203 0 0 0
20 1 4 13.017359927979825 7.248068929751765 4.701806643318401 0 0 0
332 3 -2 14.756119217417101 7.249012090239685 3.022642063483814 0 0 0
291 3 -2 2.165208769660737 8.564267870036977 4.679397108427323 0 0 0
211 3 -2 5.853914186426033 9.980102217770645 4.810411495193109 0 0 0
84 1 4 8.849160592652817 9.208965752546574 2.731400332116648 0 0 0
220 3 -2 8.954302578357828 9.062419410489563 4.283119927561153 0 0 0
244 3 -2 11.753200344617618 7.5316587767882535 5.447188161875725 0 0 0
67 1 4 2.726263624814111 11.052471970849457 5.02059659331518 0 0 0
163 2 -1 1.6805175136023458 11.356428881261436 5.005173604237616 0 0 0
11 1 4 5.405892774325779 11.769670590939185 4.834028926626813 0 0 0
267 3 -2 3.6068772600022907 11.97425456601749 4.13268732053399 0 0 0
107 2 -1 4.5573074903439625 11.406850643164555 2.8577483957636187 0 0 0
166 2 -1 10.592088588647533 12.729044539742672 1.6082663385778593 0 0 0
70 1 4 9.269918850854156 13.093468295913713 4.477974082280786 0 0 0
270 3 -2 11.049079371732747 11.959388828075388 4.8721669287177 0 0 0
14 1 4 12.567520233971521 12.349753746176106 5.175078208529868 0 0 0
110 2 -1 0.4195557870672198 11.719026783846232 5.329312558301499 1 0 0
85 1 4 2.1797820727587833 14.886010095382387 2.598112844427669 0 0 0
221 3 -2 1.9712484184210943 14.228368941127238 4.50931328917622 0 0 0
245 3 -2 4.245931874766003 15.522724401348317 4.7249514676088555 0 0 0
294 3 -2 10.261992566648093 14.403690982096595 5.619459314891897 0 0 0
214 3 -2 13.681589707013838 13.982183952892363 5.5623981887156 0 0 0
293 3 -2 2.6471979650781563 0.5728546898939533 5.420715776582088 0 0 0
213 3 -2 5.398658493481187 2.372210940009391 5.813330581838298 0 0 0
86 1 4 9.207697982209234 0.8393500370822137 7.914864215299938 0 0 0
222 3 -2 9.066535197968465 1.4416709447671854 6.446491707023543 0 0 0
246 3 -2 11.461385147606697 15.555468339065193 6.022850907995156 0 -1 0
69 1 4 2.092356123730492 3.1297728425901745 5.915758830908593 0 0 0
165 2 -1 1.5517750538936503 4.281623712612397 8.948238184824877 0 0 0
13 1 4 4.848631157964676 3.343846331527154 5.740355558854296 0 0 0
269 3 -2 3.429640012529559 3.590253758173029 6.312661568812196 0 0 0
109 2 -1 6.494726843141454 4.037421525624314 7.090347023398005 0 0 0
164 2 -1 10.2891999999488 4.841407811045795 7.798966654976333 0 0 0
68 1 4 9.864720337985796 4.671798064290874 5.724215952589898 0 0 0
268 3 -2 11.288621802156268 4.3727962982022515 6.546903332536539 0 0 0
12 1 4 13.111050679183203 4.748086886012962 5.712722224454361 0 0 0
108 2 -1 14.76742294834328 4.022789896234933 3.963719648853065 0 0 0
83 1 4 2.1788956851183534 6.495525313994335 8.01734099867754 0 0 0
219 3 -2 2.1779189919810475 6.467246063204753 6.619170270656449 0 0 0
243 3 -2 5.144211781758292 7.683221042373417 5.028757807522088 0 0 0
292 3 -2 9.582853808363325 6.473073088771535 5.086983230827241 0 0 0
212 3 -2 13.436599839228158 5.576878875784246 6.178816479490067 0 0 0
19 1 4 5.902030655108199 8.098561215670914 5.472700116124471 0 0 0
331 3 -2 6.738025229115252 8.411176531624735 7.371943496954449 0 0 0
36 1 4 10.090477072315439 8.573986435477918 5.684620365740049 0 0 0
132 2 -1 12.207676741734685 9.679554259818023 5.973212238225047 0 0 0
116 2 -1 13.828368558038338 10.2903619154196 7.54884135580649 0 0 0
51 1 4 1.4961930265403807 12.292611689370528 7.271108528783895 0 0 0
147 2 -1 2.9236882422495283 12.765232895316819 5.118934925568574 0 0 0
195 3 -2 1.3446604908910935 11.617310157542363 6.400177149319428 0 0 0
59 1 4 4.52010757874273 12.172437636086308 7.818854711534328 0 0 0
227 3 -2 3.8697607619723713 11.499126221518258 7.882394516979684 0 0 0
307 3 -2 5.86396503910005 12.04675636210374 7.122563300171094 0 0 0
150 2 -1 9.943941896220098 10.164629705005051 7.677578048269248 0 0 0
54 1 4 8.806397643130074 11.99146146144348 7.37968477177746 0 0 0
198 3 -2 9.568024814862166 12.9080596224093 5.752696550724107 0 0 0
230 3 -2 11.094480132704179 12.398793094848074 7.503586953213181 0 0 0
62 1 4 12.596539135013591 11.490682949092387 8.080946753227712 0 0 0
310 3 -2 13.379396634541429 11.471867961394057 5.94019067851876 0 0 0
37 1 4 2.4203097276580054 15.349076884062242 4.995898529048718 0 0 0
133 2 -1 14.975799624345882 0.9290577319496498 7.721516591783988 -1 1 0
117 2 -1 6.980790768403054 14.615803026977895 7.082633973332847 0 0 0
22 1 4 13.507290761915678 0.05864737140774956 5.365227434160503 0 1 0
334 3 -2 13.419571423080434 14.832929501968586 6.38988107162382 0 0 0
126 2 -1 0.12198809865232363 15.472758450395217 9.789295826956954 0 -1 0
202 3 -2 3.2007041241184355 1.6210707657785044 9.660679532615328 0 0 0
74 1 4 3.5794583346199236 1.455386841712078 10.260961715855279 0 0 0
170 2 -1 1.7751277696052965 15.393408725645806 6.829954085026946 0 -1 0
182 2 -1 6.583142150178579 4.1379938896562685 6.455663556968459 0 0 0
46 1 4 11.286058475372116 1.1169898093360815 10.156922673291243 0 0 0
262 3 -2 11.182960002303247 2.4081456968385275 8.624780574567694 0 0 0
30 1 4 14.213359995285963 15.416074074849865 8.63499616916491 0 -1 0
238 3 -2 13.606704900610387 0.7532237156254143 8.713790355810858 0 0 0
98 2 -1 2.4906847693099685 4.59539001614188 7.502983045135574 0 0 0
139 2 -1 6.780257720768262 5.0656617336177 9.406386061306714 0 0 0
103 2 -1 7.831851752491094 2.226114937603938 11.56186412458726 0 0 0
142 2 -1 12.868181758157762 4.496101577224925 12.354112885931425 0 0 0
179 2 -1 1.6391278657575967 3.0131955766741223 6.989449042519675 0 0 0
43 1 4 3.8282771052427154 6.274126176147696 10.003418003881738 0 0 0
235 3 -2 5.19998777226095 6.5390841530723565 9.334942015975145 0 0 0
259 3 -2 3.141974945761369 5.568310865286 8.422828496991494 0 0 0
27 1 4 6.766953586820475 7.766154065272485 8.060613677326897 0 0 0
123 2 -1 5.4595680567076155 4.67606592901443 9.750928318626888 0 0 0
79 1 4 11.089813712532894 7.106175831230174 10.128454688607192 0 0 0
175 2 -1 9.811698640554722 7.537311249634379 6.411726578988809 0 0 0
207 3 -2 10.578249150900744 5.667748965568298 10.558391521642767 0 0 0
91 1 4 1.2737571707410222 8.96565919201885 9.713525674109798 0 0 0
275 3 -2 2.1547267906551717 10.000368228266119 9.932845379038671 0 0 0
299 3 -2 1.184451460291528 8.276804092244689 8.604486755270099 0 0 0
3 1 4 6.418479344422255 10.953031316939084 9.932390826732874 0 0 0
251 3 -2 6.68184049202425 9.768452464057304 10.188975667903492 0 0 0
287 3 -2 11.616749859706426 8.628849218979525 9.843301012220758 0 0 0
158 2 -1 11.485614449900687 10.106179109906497 5.753713462640191 0 0 0
187 2 -1 13.562315784358661 11.055155808819116 9.71010390934424 0 0 0
315 3 -2 1.1567216911043938 10.831413481626274 8.188320748970993 0 0 0
323 3 -2 5.952203519731517 11.340578285696125 8.903203523667841 0 0 0
318 3 -2 8.317177015473805 13.007019158368411 8.138808068337205 0 0 0
326 3 -2 13.416736537195982 12.37142714049107 8.527523030717225 0 0 0
155 2 -1 5.687239923002133 15.297091243527099 6.384789845631582 0 0 0
282 3 -2 3.7268123531945627 15.306256813607416 10.932764422826207 0 0 0
94 1 4 8.775566145053629 14.34849058101457 8.984614339490335 0 0 0
190 2 -1 7.220168390492007 0.7233954604266213 12.154582665009217 0 1 0
302 3 -2 8.571128491350029 0.038111198188475574 8.467999244893099 0 1 0
278 3 -2 9.063992770653677 14.869484110024555 10.273496152675884 0 0 0
6 1 4 13.628230466228146 13.151866179900235 10.106342599630635 0 0 0
254 3 -2 13.885199780335224 14.48601497637461 8.847016169820451 0 0 0
2 1 4 1.1023183952848288 2.4220254964128856 11.397971130308568 0 0 0
250 3 -2 0.5069130635399027 1.403926634956666 11.59573800886976 0 0 0
274 3 -2 4.859107244881976 1.9324728081739235 10.304071416076038 0 0 0
90 1 4 6.665823768078934 1.3909358583026452 11.90868827838436 0 0 0
186 2 -1 7.284185570332369 14.99020535825206 10.745447356165226 0 -1 0
298 3 -2 6.104459569705617 15.415185174819234 12.768350900895264 0 -1 0
159 2 -1 10.317382526562357 2.314446318377492 15.571651255998725 0 0 0
286 3 -2 11.214642384584478 1.0525521756224483 10.244520498270804 0 0 0
322 3 -2 1.910084618070192 3.2157042145725034 11.950982539508024 0 0 0
314 3 -2 6.150908574446778 2.8541093611878465 13.03645738911822 0 0 0
327 3 -2 9.016467577870763 4.2368494256667715 12.13142694481513 0 0 0
319 3 -2 14.307151643270505 4.884593162207117 12.724828541461692 0 0 0
154 2 -1 4.601828909886443 6.2913580042062245 14.746394471594234 0 0 0
191 2 -1 0.738743350369649 8.709859453733916 12.419769404835849 0 0 0
283 3 -2 3.4613165419838694 7.273648834174108 10.2604374500842 0 0 0
255 3 -2 8.809540411044258 5.9693887754804456 12.22379939917333 0 0 0
7 1 4 9.46758892273573 4.897169323777969 10.701311881650465 0 0 0
95 1 4 14.328593060186543 6.352359575712637 12.319824858646188 0 0 0
279 3 -2 12.658386430471506 6.712641785108134 10.34084265749248 0 0 0
303 3 -2 13.819188164355324 7.817215113898737 12.364196745255892 0 0 0
75 1 4 3.933573933073292 9.06698558241148 11.140167217573186 0 0 0
171 2 -1 1.5398615969484164 7.055818864674769 15.456408811098681 0 0 0
203 3 -2 4.124736813460831 10.691656900971893 11.104636592304109 0 0 0
31 1 4 7.995861594674574 7.716108694684607 13.175390234194024 0 0 0
127 2 -1 6.222278596641083 6.50562970267125 13.6522560266214 0 0 0
47 1 4 10.882736649347004 9.390106265286901 11.42090177510701 0 0 0
239 3 -2 9.054026784699936 8.468156987410724 12.667349889860295 0 0 0
263 3 -2 12.109801485360764 10.174389606869664 12.47272635185757 0 0 0
183 2 -1 14.828850598604365 9.965438277906932 12.357375460712008 0 0 0
138 2 -1 2.335267951166799 13.771920921881621 8.514492629303323 0 0 0
99 2 -1 5.425961735776489 12.464384848571797 11.470449805042044 0 0 0
143 2 -1 9.352519299051 8.420833455406072 11.210897924397704 0 0 0
102 2 -1 0.657148460338313 14.99923659233016 10.777318272277535 1 0 0
26 1 4 0.8345382631481641 0.11839160919437838 12.37931986422112 0 1 0
234 3 -2 2.241780226379858 14.341917619521604 12.092527515988088 0 0 0
42 1 4 3.6794317780424013 13.776505410526708 11.461362814307352 0 0 0
258 3 -2 4.932747229966278 13.99342967641851 12.651667075611343 0 0 0
178 2 -1 8.455442272913858 15.098996054504388 14.530208751124233 0 0 0
78 1 4 10.566542699621877 14.957579313509692 11.335345977655688 0 0 0
174 2 -1 11.049033071557323 13.854521712202615 14.370243090216418 0 0 0
122 2 -1 13.959200636804033 1.1728613962068333 13.391428037280974 0 1 0
206 3 -2 12.33710704348031 14.023869513684662 11.35674878824128 0 0 0
18 1 4 1.845268735201068 0.574060509359962 16.216102726239534 0 0 0
330 3 -2 0.5904105969011448 0.621974996161532 14.596128504414741 0 0 0
113 2 -1 7.26032841561247 13.71990791457377 16.60339971817536 0 -1 0
33 1 4 12.416574020166536 0.39961918650424083 16.13472594330753 0 0 0
129 2 -1 9.908412729476261 15.14284831469734 12.036283069032248 0 -1 0
58 1 4 2.7721667645565846 4.36495118844963 13.297341834448142 0 0 0
306 3 -2 2.476138560487153 4.274262904227381 15.334144541597158 0 0 0
50 1 4 5.441666049649068 3.932843750433678 13.306860518155338 0 0 0
194 3 -2 6.130425568075554 2.8572363509239094 15.793916973223794 0 0 0
226 3 -2 4.638513365980492 4.355670508272901 13.988209479916167 0 0 0
146 2 -1 7.18654267458572 3.145847804057277 11.350153529620833 0 0 0
63 1 4 10.415312897051004 3.8407505987515047 13.420863341156231 0 0 0
231 3 -2 11.461242395434082 3.4619671145498048 13.165638374662553 0 0 0
311 3 -2 9.340673315607956 3.7621165039749065 14.508327590674162 0 0 0
55 1 4 12.96984698489254 4.00764951958807 13.34205125273415 0 0 0
151 2 -1 12.81710173607468 0.9312841210659519 11.592621489610211 0 0 0
199 3 -2 13.428814171475041 3.8588442985594145 15.707706196302679 0 0 0
120 2 -1 14.720351701997917 6.763859924526636 16.60227965656367 -1 0 0
40 1 4 4.525124161673227 7.31533526418705 15.306206837765247 0 0 0
136 2 -1 3.9601487676129485 8.035523041860877 14.452677017443419 0 0 0
23 1 4 8.595391285198096 7.582266103808023 15.4777501711666 0 0 0
335 3 -2 8.512942557728504 7.377744943677177 14.408714999596945 0 0 0
216 3 -2 2.017371608652732 10.090807123018173 15.380732530207835 0 0 0
296 3 -2 4.704407267886866 9.087225382252452 15.799428417580533 0 0 0
247 3 -2 10.253080878547234 7.566217783164962 15.556230863495257 0 0 0
87 1 4 13.556486390555811 8.788117728558563 13.334010257695336 0 0 0
223 3 -2 13.35786583087835 9.617610713976745 15.493774181147645 0 0 0
16 1 4 2.141653898398456 10.920076699990975 15.458616991828345 0 0 0
112 2 -1 0.19040750444745644 10.79499937274203 12.39462897623055 0 0 0
72 1 4 5.456208868813709 11.035418714333195 15.136715948085023 0 0 0
272 3 -2 3.1386191673875548 11.428890400625772 15.676312476406418 0 0 0
105 2 -1 9.837400607772906 12.979091228045222 13.495920292301516 0 0 0
168 2 -1 6.950739416930894 8.521443724107492 14.71055784850207 0 0 0
9 1 4 9.497593186391235 12.438791168263977 15.67917822088174 0 0 0
265 3 -2 11.33658522050237 11.937320873208124 15.523234629461736 0 0 0
65 1 4 12.409160284114938 13.43458709241463 15.2180552767595 0 0 0
161 2 -1 0.008079345990864795 12.437040715079743 14.911581846707989 1 0 0
242 3 -2 3.2624445661759083 15.092939118069562 15.516334902133963 0 0 0
82 1 4 6.028418931404346 14.973455663465028 13.109071194435883 0 0 0
218 3 -2 5.746743248981757 15.320868406004443 14.403341675210685 0 0 0
209 3 -2 9.377796256265677 14.619033844746536 15.952435184942706 0 0 0
289 3 -2 12.549676493417383 14.29764580594057 14.94206528560161 0 0 0
210 3 -2 1.0015167097384767 2.370747102602534 16.37532373728992 0 0 0
290 3 -2 5.766068353044136 0.7764049511454089 16.86992263012194 0 0 0
241 3 -2 10.34361192033171 0.6814750261074805 15.798003946939053 0 0 0
81 1 4 13.725273937756969 1.6159449387727842 18.66634603276353 0 0 0
217 3 -2 12.42897151804776 1.5464240736160557 17.09994224638513 0 0 0
10 1 4 1.8442389924286602 3.5534538267888887 16.023306325719215 0 0 0
106 2 -1 0.07647598816332152 5.888308083196422 16.297723661304065 0 0 0
66 1 4 5.648210928994883 2.305100915702158 16.489027989810165 0 0 0
266 3 -2 4.070284157891036 3.895274469843003 17.225768361077378 0 0 0
111 2 -1 8.858161843376447 4.27278280333959 16.731200944017825 0 0 0
162 2 -1 3.6630228304769212 2.83661317064399 18.708188903372506 0 0 0
15 1 4 9.891089979820919 4.308382578760636 16.734473654821308 0 0 0
271 3 -2 10.818459238895473 4.546732850093518 16.72105587686919 0 0 0
71 1 4 12.326939970613155 4.942064125792323 16.513509972778234 0 0 0
167 2 -1 14.022750917953033 2.7020224444021506 16.514155988570955 0 0 0
248 3 -2 3.2182232776692774 7.185274535175809 15.80973596532801 0 0 0
88 1 4 6.230922204356568 6.724470414443818 19.086594679107986 0 0 0
224 3 -2 5.443570151504781 6.810477784261684 17.437048347061552 0 0 0
215 3 -2 9.199651861152232 5.9874627396547675 15.741740198566847 0 0 0
295 3 -2 13.300253818899344 7.025693428431141 16.7261587754036 0 0 0
24 1 4 1.754928363850998 8.080198942608321 16.258379381495246 0 0 0
336 3 -2 0.6700679600954578 7.837445890839265 18.096198041165163 0 0 0
119 2 -1 9.042337853544359 5.8213316374692265 17.56906605776152 0 0 0
39 1 4 11.95391807952382 8.616155350722037 15.865059702938677 0 0 0
135 2 -1 10.02854110407673 10.60101859676289 19.898940364913685 0 0 0
64 1 4 2.4701512677799746 12.035690775946625 18.267553520074244 0 0 0
312 3 -2 1.3425963348088077 11.769006237770146 17.57531457347226 0 0 0
56 1 4 5.30988474416982 11.986838755103747 17.980992433440836 0 0 0
200 3 -2 6.167434841819292 10.92280671225434 17.189564628407144 0 0 0
232 3 -2 3.861828930939592 11.960354179593068 19.027905644613583 0 0 0
152 2 -1 6.7446485383227195 13.247662297627128 19.359340997794977 0 0 0
57 1 4 10.59368165826405 11.480314891451378 17.984160444968506 0 0 0
225 3 -2 11.629360836962817 11.323090748541501 18.8664865095818 0 0 0
305 3 -2 9.648233762701967 12.37032308021303 16.526502184275607 0 0 0
49 1 4 13.735512543154766 12.144437658945598 18.138975252879288 0 0 0
145 2 -1 14.912927996183788 11.356869482974455 19.427975457914055 0 0 0
193 3 -2 13.910239516855668 11.711730471909101 16.214757761019953 0 0 0
114 2 -1 14.115341687067032 1.1083537926284737 16.68462808721737 -1 1 0
34 1 4 5.04570816703641 15.3868828107154 15.809627238615793 0 0 0
130 2 -1 3.2517673462882604 13.837538232063874 19.805425962113727 0 0 0
17 1 4 9.157386576443873 15.574011744477565 15.975818932317836 0 0 0
329 3 -2 8.32907141798264 15.126290705832117 17.715957655355954 0 0 0
77 1 4 3.171247819658742 1.5549782667588907 20.431714385669313 0 0 0
173 2 -1 3.999466254826654 0.33277822017121583 16.696881560563945 0 0 0
205 3 -2 4.176192460797471 1.6478179852835368 21.158349457223018 0 0 0
25 1 4 8.102120440796591 15.597733871184532 19.1736435142193 0 -1 0
121 2 -1 6.705397075570104 1.9442315595917217 20.665936881988316 0 0 0
41 1 4 10.459043111087265 1.6640331805953046 20.24083387368061 0 0 0
233 3 -2 8.894068649106961 0.7442130706656641 19.77332572321961 0 0 0
257 3 -2 11.289747402513026 1.2814060584828488 19.977841176909266 0 0 0
177 2 -1 0.4791533494926804 3.08754111226124 19.308648651642873 1 0 0
144 2 -1 5.161413462762746 6.890159221022615 0.3027336099778688 0 0 1
101 2 -1 6.13559766584057 0.5819828219863489 19.89643277225879 0 0 0
137 2 -1 10.299719534204865 2.1993754887868087 18.465725811832254 0 0 0
100 2 -1 0.4054408361230382 3.507293396115368 18.601345007201147 1 0 0
32 1 4 0.9309928874755384 7.9163464426022445 19.179650128373154 0 0 0
240 3 -2 2.060255554703301 6.174522696369632 19.276167912970653 0 0 0
48 1 4 3.6410181699911384 6.426851214420566 20.119705790769675 0 0 0
264 3 -2 4.054283420412503 6.643466677415416 20.01984948608414 0 0 0
184 2 -1 9.443711099275616 2.9682973740742833 18.18791996020366 0 0 0
76 1 4 11.41707720437621 7.363408202088853 20.066781469161626 0 0 0
172 2 -1 12.347738646219748 8.870176443762867 18.305868831103258 0 0 0
128 2 -1 0.8202441984431461 6.755187957519406 0.17471510334326013 1 0 1
204 3 -2 12.379300854358858 5.1832756785316825 0.11356099537671227 0 0 1
8 1 4 1.2064523717188431 10.72426320811663 0.08756840362920215 0 0 1
256 3 -2 0.17422401841866786 9.015063772788158 20.65550725127398 0 0 0
280 3 -2 5.6905351190157925 9.701580622952122 0.13755620593278198 0 0 1
96 1 4 6.121256117574489 9.025029941752052 19.778937380768884 0 0 0
192 2 -1 8.454223979000645 9.957388300521506 20.55993128489487 0 0 0
304 3 -2 6.060623583320594 8.528451197246394 19.78892039264705 0 0 0
153 2 -1 8.7723744421649 11.289149398841804 18.976199534111178 0 0 0
284 3 -2 10.824472697521616 8.093601228722978 20.946667904680353 0 0 0
328 3 -2 2.156483990738177 12.254295776703032 19.357492860728904 0 0 0
320 3 -2 6.863601923090046 10.630256752763406 18.60352165899355 0 0 0
321 3 -2 9.524281298472676 12.766369956999268 19.41837400705083 0 0 0
313 3 -2 14.506956110925852 13.044346957438334 18.480822252298463 0 0 0
160 2 -1 2.6965690136449663 14.664750210415189 19.478242029007866 0 0 0
185 2 -1 2.0979088311442267 12.810716312131868 19.40494453185766 0 0 0
285 3 -2 3.2376989053246485 15.220984681673293 0.4058998680428396 0 0 1
249 3 -2 8.038803677536439 14.113851037671552 20.354696650591354 0 0 0
1 1 4 9.471327892210835 12.855357066531397 20.337844482981595 0 0 0
89 1 4 14.516941009492857 14.315885637037818 19.882894042688093 0 0 0
273 3 -2 12.680066280841809 14.877885224659497 0.3909256215595329 0 0 1
297 3 -2 13.840955993020772 0.0029749147027864353 19.520518350973262 0 1 0

Velocities

93 0.0025292195713271163 0.004108794297359988 -0.0029433106637617897
277 0.0038079774158822762 0.0003897652006957491 -0.006161414789823974
301 -0.004774881804395215 -0.0043557537980719735 0.0028594027911078186
5 0.001536266568890132 -0.0036284236711958376 -0.003374094294459092
253 0.006453675856999941 0.005676619829945875 -0.0012891117892118037
281 -0.0022546123108315723 -0.004435700239550072 -0.0012888306176550408
156 0.01371103934752937 0.00031720591747222404 -0.005671035457458116
189 0.02444340445471663 0.02288569259572643 -0.01281777798447633
317 -5.2223194139814574e-05 -0.0020057789806813943 -0.0031358620687169025
325 -0.00709175143567273 0.00704450467613089 0.002417511007221937
316 0.006560283109360851 0.003162622765101181 0.0029535870494152554
324 -0.003292848619455427 -0.0035725204414067714 -0.0006782453179862828
157 -0.016022583769176396 -0.024899171254600574 -0.01307096976846782
288 -0.004410234034294094 0.004844066281571597 0.003369127201859271
92 -0.0035669136804306776 -0.0006784070083725542 0.003777419244222386
188 -0.00495050066845349 -0.020091222340296925 -0.004878421983985786
300 0.0018244408806848999 0.005284340082242262 0.0034635532799583138
276 -0.0070054195371236465 0.0028357864890003522 0.005626940570426472
4 -0.0006774012670812126 0.0016565211903261815 -0.004346942025206414
252 0.004223147913652373 -0.0010953576917910695 -0.0023611711573722637
124 -0.0013497571082419526 -0.006631333160516468 -0.012836012103439149
208 0.006036465260151964 0.0011298933871153785 0.0004908333013384744
80 -0.002575483556015754 -0.004440113650522943 0.0034413009727801884
176 0.01223493155286584 0.010025461731337403 -0.03012390892504382
180 0.020958369336932743 0.0038698757830293766 -0.015109479447746522
44 -0.003717973931993108 -0.0016841917880077502 0.0008728935446541088
260 0.0025946362820221495 -0.005461504228369449 -0.003105047288518912
28 -0.004285403176088795 0.005180223665979434 0.004930587166431711
236 0.0036315529899668105 0.0021145047752036124 0.0049103033257510975
104 -0.0031441099459900744 0.018749864198934513 0.020752182073833534
141 -0.015590431886963262 -0.012352443983356037 -0.014479866415391299
97 -0.022392473534044277 0.020064565570366268 0.00829276559637854
140 0.015052976321586939 0.027121197964410104 -0.018275598720761142
181 -0.024750939246755907 0.011466574582749006 0.006568733622818543
45 0.002769439156243266 -0.002146071610418263 -0.0035989003031867742
237 -0.004968276638733545 -0.00457014124465054 -0.0013618340959621325
261 -0.006678087528881 -0.005633844857479126 -0.0033841744643421457
29 -0.001973594069060399 0.004749647789538864 -0.0014820741705901808
125 0.013798411296033448 0.0009381151330095138 -0.003624749758643571
73 0.0021788130668326617 -0.005085724995145681 -0.0018976804205743075
169 -0.013490376981600776 -0.014933735958261704 0.025596640015595907
201 0.0010764747448076147 0.0016829922451911186 0.0026677958581108516
21 0.00365189875260786 -0.0010517769986590562 -0.0014354042266493572
333 -0.0035153717332860306 0.0004142076597339707 -0.005070395792218757
38 -0.003115631790994045 0.0024145996916092732 0.004385003793208835
134 -0.028170709376813194 0.0031216224346947894 0.017000298926638478
118 -0.011124133327890888 0.010553127055858409 0.020260785095292704
53 -0.0014226010348728254 -0.0031479484026712937 -0.00026632544201995827
149 0.0007596939766796121 -0.016021632019674138 0.0055626071790896335
197 -0.005183145380811253 0.00018961282870425255 0.006481125142525391
61 0.0036587452896714736 -0.003278257543259941 -0.004396875003881457
229 0.006739190353840708 0.0007824710035702309 -0.0037533706019656854
309 0.00576816462641368 -0.0013515672164870303 0.0005799668509552831
148 0.011242429779972406 -0.007557961357160644 -0.008200249268184788
52 -0.003133834168605108 -0.002030991172580263 -0.004485836338511382
196 0.006060501019098929 -0.0046144960487538664 0.005617158952644613
228 0.005605407538016573 0.004031347100657065 -0.004798068012453385
60 -0.004772033921905253 0.005123426197228747 -0.0006313448007871713
308 3.8498333841624914e-05 -0.003078234963502401 -0.0005144027990912199
35 -0.0044675076326439545 0.001549123971535494 0.001911635419123938
131 -0.024793399193072205 -0.026728967949965526 -0.007149512262115309
115 0.0015160973250741355 -0.02372582192081497 -0.02157514693079766
20 -0.00484728867958541 -0.0029999051809480827 -0.004750003562056369
332 0.006932319976628957 -0.0027389833906435773 -0.0064445827036507305
291 -0.0016169878508437354 -0.005835205260205263 -0.002592557073988845
211 -0.0009339009557222096 0.001777374810262833 -0.0005001770737238597
84 -0.003827644400005054 -0.00016596472854687002 0.00045363354364281707
220 -0.006652491001837687 0.0007255471682937571 0.00023498935212368414
244 -0.0022411233408253057 -0.007292292449977629 0.002916254858539652
67 0.004846958872788326 0.003873516486304185 0.0037555842405913938
163 -0.0030838085242260306 0.022185361135556064 0.009160863809502599
11 0.0006265439089429688 0.004735108746748226 -0.0008369765383043811
267 -0.001656237845518623 0.007090269970118174 -0.003526721453660174
107 -0.020189016471846077 0.007978962524427218 -0.023061483333632393
166 0.016823240478184537 -0.0007878757834231636 -0.01881033762797209
70 -0.004942968022628797 0.0006599583992375962 -0.0018645507476232738
270 -0.0021354058634893967 -0.004754124698548574 0.004134398735124483
14 -0.0027592396808731115 -0.0004741766627699823 0.002696316945891588
110 0.01773536608731164 0.0019600876391626006 0.013031481668512028
85 0.004657821622325292 0.004173628713172393 -0.0009272254892852801
221 -0.0014167061646849662 -0.005049269630394152 0.002578353699296723
245 -0.0026335990609216557 4.5230342404093156e-05 -0.004259125556648477
294 0.004546705141896143 -0.0023674768144001323 0.006997305754936257
214 0.002528594585828267 0.0006914945503742866 0.007162605233701376
293 0.0032376609431756303 -0.006219719007927054 -0.0026227655960798578
213 -0.00570235329346611 0.004995847449165022 0.0006883101789608366
86 -0.00011319526756323809 -0.005003089948773489 -0.00015997109734764008
222 -0.005489760506533713 0.0036466903662021595 0.0009221493302352382
246 -0.005461727936798276 -0.005563539813550321 0.005604720406107061
69 -0.0017222929053657065 0.003668630054844705 -0.0004580157880267013
165 0.0007480381679242915 0.013222115298155738 0.01821835349534824
13 -0.005146708220438904 -0.0006843188975364717 0.00038593995306392186
269 -0.003492574844171649 0.00210422881342465 0.0017387889030540324
109 0.004062571447434753 -0.0022910104135502756 0.004621746130005072
164 0.013687543368273129 -0.0005795985716917054 0.0063118947512113025
68 0.001219178331434099 -0.004716451866333462 -0.0024424009565478973
268 0.0003462549026888556 -0.0014791258359869476 0.004165534735961012
12 0.002871738424839185 0.00264465206328665 9.965847175106326e-05
108 0.012187483553703188 0.003922705618857193 -0.027770128963440385
83 0.004648645295542276 -0.0008796609841172978 0.0009017089023286951
219 0.0007244020014964737 -0.003582406038465924 0.002711100105134939
243 0.006232954672150155 0.0004930982345862993 -0.001143529917901559
292 -0.002489175759219014 -0.0026565824219286177 -0.006080198948030119
212 -9.50165841471661e-06 -0.0045153726333296675 0.004474745889700806
19 -0.0009853780713854343 -0.0017508521857113241 0.0001574113540513535
331 0.0014450870630556322 0.0012343449822835725 0.004130849597723021
36 -0.0031282588106794607 0.003458150698540844 0.0022288990838630826
132 0.017869363575167652 0.016039654045329987 -0.0018139210749652211
116 -0.005477250089273923 0.019976802134416015 0.015920044750485505
51 -0.001673686953156764 0.005170668581579222 -0.002304962720138918
147 0.019917084950706886 -0.002502465532100387 -0.02673979877780018
195 -0.0015671010628552605 0.002140797060097017 0.005136123010536933
59 -0.0030518109146752607 -0.0019405798600108481 -0.00027084124591442984
227 0.006537119723721399 -0.004687105485307248 0.0002824810399889898
307 0.0038408161242587846 0.0013160674969049779 0.007220503336056123
150 0.015475617353040476 -0.005000633226928159 -0.0008522832158663345
54 -0.0035179726684001116 0.0007995793796138109 -0.0011793130210129368
198 0.005991380727094783 0.006308734678652225 -0.0016268952180961056
230 0.0038049876679137774 0.00665326282648116 -0.003641967197711094
62 0.0030397994921331716 0.0014742211826017028 0.0024444336047558845
310 0.00412046415698557 -0.0032794081613412534 -0.005028882883191962
37 -0.005004920652784258 -0.0012295499531952334 -0.004994268040436613
133 -0.027978758238719887 0.020957718144737292 0.010456168956074962
117 0.0011620706155183059 -0.007565215111466565 0.011090133957891681
22 0.0002248937842199149 0.004387438503337863 -0.0009560061636475354
334 -0.0069143217956039865 -0.006041696490432605 -0.006043321995047514
126 0.011506739919344347 -0.017307296644290742 0.016104834224028912
202 0.0038336990206869924 -0.0052767087699818575 -0.00541832343413122
74 -0.0046693155720219665 0.00405717872225539 0.003943789077937372
170 -0.028073857312328514 -0.0230466886345471 0.004930897058878493
182 -0.016562354296884046 0.018400878981731098 -0.01632668688026374
46 -0.0052303156202303846 -0.004779479254738717 0.003830242933552396
262 0.006671430108151831 0.006307904285209796 -0.0014552698716781601
30 -0.0004844257174636694 -0.004350781308015706 0.0010085680559366028
238 0.005081259036321936 -0.0037789153757898423 -0.002470082446852619
98 0.020157930744770194 0.014287052479185235 -0.027156575578234057
139 0.022726391531226756 0.00015278624696022316 -0.011071605663991534
103 -0.0020573354630120475 -0.025535429273592033 0.014934690455235936
142 -0.025141414109928407 0.004941162085157382 0.006948783880966285
179 0.009797893754523555 -0.026186655740116714 -0.01079666660492142
43 -0.004912509008369458 -0.000520793418498906 0.0022399490255275325
235 -0.004437623451927988 -0.0025400554619946624 0.003964870740825824
259 0.0009470456141845718 -0.0055439098417772 -0.0035474943960868534
27 -5.2690683410504496e-05 -0.0011154306772342452 -0.004933425741460414
123 -0.027223406550718147 -0.026945739500360336 0.010839955528126605
79 -0.004442257178043598 0.0027685179285826087 0.0025710156190459966
175 -0.020524824257753455 0.007188335647957313 -0.020914215314964946
207 0.0026848415188461656 -0.0010832177608432376 0.003881977220565151
91 0.003351639297615116 -0.003774591230167021 0.0030816933052468408
275 0.0005358332696746537 0.005953703163305674 -0.006605345909637033
299 0.0003885658238861438 0.003238130075494162 0.0004806388519445473
3 0.004589969116428433 0.004748971204217303 -0.0027532219839516824
251 0.00011973660305440563 0.006000754125086587 0.007137532425376641
287 0.005753292945051165 0.0030049469179999518 -0.005159411704793092
158 -0.00992905680092599 0.0021982533942354458 -0.02348706561673228
187 -0.010822271792589674 0.01822413682271389 -0.0036883963240812705
315 0.0015535831001395881 0.0022090568918653256 -0.0024216883730517726
323 0.004059978421270774 -0.0026437171425950107 -0.0017741681835691276
318 -0.0018443247944281084 -0.0008591818126723662 -0.002934639989762572
326 0.003812316933947641 0.0026838056602702222 -0.005666219952120657
155 0.007580014904865295 0.015363348150318324 -0.016949111161813083
282 0.0015937618178691628 -0.0006535350125131508 0.0061274346276220795
94 0.00349015690794477 -0.00030710679029610365 -0.004469831733339303
190 0.0010533103168881765 0.02192957762675103 0.021636415697565543
302 -0.0006656840683980745 0.0010322984703566276 -0.0009333724318924864
278 -0.005464397477276485 0.006081685101160337 -0.003076202206750503
6 0.0017175657209272264 -0.0006456580456998901 -0.0009587293239661666
254 -0.0028336860124808187 -0.00034075645180827016 -0.006765174624483735
2 -0.004254727802516113 -0.0017601563041728166 0.003732495516489487
250 -0.0032244746822168106 0.0012163601528067877 -0.0014511728249980028
274 -0.005452738443084822 0.00424240169822643 -0.0037434778536585465
90 0.0013221647380981727 -0.00037671388682937966 0.0009211984404515673
186 -0.005948652483808467 -0.022880865411443744 -0.004395373242537002
298 -0.0024556719716221326 -0.004680341602070628 0.0009386831339962454
159 0.007514195298621783 -0.006081587929142847 0.024634587916998536
286 -0.0019607377696054906 0.006386607071883821 -0.006734039946003081
322 -0.00018689489093390768 -0.004945317714698781 -0.002179742903900607
314 -0.003452654013160253 0.001389975571713309 0.002337223879019344
327 -0.00414499275037447 0.0002816752913400387 -0.00031033797077463764
319 0.003491700197560443 -0.0031354203160361463 -0.0009213633878615367
154 0.03432947454777546 -0.011783643539157247 -0.0056677831994366755
191 0.013824035260107661 0.022885370338946956 0.009554394106757725
283 -0.004704971381724796 -0.0019992584175061324 -0.0065691402463421995
255 0.005210525242620619 -0.006700911029561563 0.005055546290734719
7 0.004829255776979864 -0.00428508415571089 -0.003484897751714607
95 0.0031192293291387335 -0.001290848841702552 0.005180732062895299
279 -0.0022324279698897774 0.003448893261352881 -0.0033625276103763195
303 -0.00014305610371000819 -0.0002532041623127045 -0.003240771788646703
75 0.0049241065573920806 0.00104124432776508 -0.0022313693193628105
171 -0.017033476505598343 -0.01974770548211235 0.027464824278650816
203 -0.005522355144855948 0.006822473472109897 0.0005437193459519057
31 -0.0021795293858989846 -0.002245526653912369 0.004912511863382368
127 -0.006779083573148657 -0.02107482970709838 0.011637556715166976
47 0.0021760203626098127 -0.000933531048871702 -0.00029838467742648633
239 -0.003114081261326442 -0.005756317659908198 0.004085794752718925
263 0.001900912714827493 0.0048940946113033065 2.216413318456284e-05
183 0.005649923665420188 -0.0030989033450203687 -0.008773517712893942
138 -0.005869760937186923 0.008477539513538053 -0.023271384338473467
99 -0.015752172176494824 0.013984809722464287 0.00367681394687826
143 -0.008681882863462533 -0.023132599420927522 -0.004833090190994082
102 0.012423159196136523 0.024922039297777195 -0.003504032167188511
26 0.0012346040614748706 0.0015113747046809635 -0.0033669415248223367
234 0.003948122291045557 -0.003579322745331762 -0.00198018392101974
42 0.005112200140890979 -0.004668080072446655 0.00013202963225065182
258 0.005126855601724052 -0.0001317722753976595 0.0018759909179621717
178 0.017201642366298214 0.01715016203277659 0.013737045942666132
78 -0.003975532272654431 0.002267219752528006 -0.000223081187052063
174 -0.007008661789459596 -0.004651259321671196 0.03416054613124674
122 -0.018054166259695758 0.017920637013144704 -0.003272781977157225
206 0.002572364130583656 0.0033403466556692963 0.0023048079363909126
18 0.0036796668377767653 0.002166003662822189 0.004561416936651309
330 -0.002763317227702255 0.002437085800235317 0.003732499179968671
113 -0.013366286288135727 -0.029264350509913863 0.0046912546397690534
33 0.0035606380461978906 0.000643800558658583 0.0038162547584900137
129 -0.024541720615634824 -0.018196961992193922 -0.025768648604836655
58 0.001019548709416275 -0.000954043080059383 -0.0009686399413553123
306 0.004982437957862524 0.002665131824168361 0.005427719143555603
50 -0.004032537945448137 0.0004320313933179518 -0.004511357307953413
194 0.0014841219561040698 -0.0067244604049622805 0.004846536055360646
226 0.004028381865590457 0.0031787929933620555 0.0062937027024665805
146 0.007284856924705192 -0.020079715238400467 -0.02254209155174906
63 0.0026266938173521545 0.004104196872887016 0.0002968551058978583
231 -0.0028683721178149146 -0.0040601635480802655 -0.0022281380239894955
311 -0.0014812085004742917 -0.0012803363984411995 -0.0031277485601188338
55 -0.0036208166884042063 -4.0619143254006475e-05 -0.004146843299090753
151 -0.012411874146465997 -0.018786004164534655 -0.01951173612269377
199 -0.00048595631638715254 -0.0055671400717454585 0.003950992491503562
120 -0.00907280348496997 -0.007040077475353362 0.014281590241636014
40 -0.0005799289866537094 -0.0025702975990215503 -0.004761783225213646
136 -0.008585504198818348 0.012708598904231216 -0.0007347953255090697
23 -0.003981779906628964 0.0004600311972859356 -0.0031140251018123475
335 0.0013944937072303775 -0.001405310391131475 0.0015134983154632352
216 0.004952201362971914 0.0030884070871984104 -0.0011210933559633195
296 -0.004655249767634109 0.00011708155588342832 0.0024601450832499754
247 -0.0023170780422798547 -0.006460080095895547 -0.002048708363410284
87 0.003209476560973207 -0.004525952342459906 0.0002950338913808131
223 0.005065884673241154 0.0064773318235189095 0.006375731951021816
16 -1.416449390639314e-05 -0.004066669803642296 -0.0007678613214676231
112 -0.012384807016769849 -0.0141546054974149 -0.02276068026057648
72 0.002345203096265088 0.0036990253950380716 -0.001441623221005896
272 -0.006040488041387809 0.0014404082061260457 0.006063709126572462
105 0.009977828800018235 0.014837896731591376 -0.011351296768930506
168 0.00975779334499752 -0.024725463438833143 0.006883508605435986
9 -0.0013868575566624972 0.0004482514712608923 0.001517154104454848
265 0.0013102203549526436 -0.004982748820321925 0.004477821873693752
65 -0.003202446324477662 0.0041939508213113715 -0.0005989473728825099
161 0.015412061144320213 -0.003760939113149897 0.008966118222971397
242 0.0028401556580767845 -0.004407347322045691 -0.002462030720808839
82 0.0027989209175937166 0.0050795652318224496 -0.0020353359186151758
218 0.0037948775466676576 0.006269030239320505 -0.004921154213832216
209 0.003625976648102065 0.007289262585721169 0.004801748980009453
289 -0.0009584822527574871 -0.003466105364855334 -0.006422141212482429
210 -0.005572060423575208 0.004980682086376501 0.00010892058691876278
290 0.006393375110821667 -0.0040809709321261 0.005973817245833957
241 -0.0013791760007904898 0.004086085890861571 -0.0031263366919265247
81 0.004984509835095044 0.0030821864712457167 0.001066346101815488
217 -0.004557465010570052 0.004731933300152073 0.0012902586886894079
10 -0.003095384393512294 0.0014872157920281523 -0.0030843301674596114
106 -0.013565138090030987 0.016884183494468685 -0.009991477296251803
66 0.004334345391154575 -0.00487497519415626 -0.0009205859284495687
266 0.003611565876843091 0.005264244897774821 0.0047969383282532516
111 -0.022129022162109633 0.0015370142115126407 -0.0036516861832346
162 -0.024302966782060585 -0.0017482010769985245 0.00932980028267176
15 0.002679011055181117 -0.0019110978495780798 0.004279127746827875
271 -0.004057567381929946 0.0003228577035004476 -0.0004318855091107461
71 -0.004054250523479532 -0.0019164953364598047 -0.0006669525301179289
167 0.0054671076591093935 -0.022782436329631065 -0.01335212709574172
248 0.0023820228900219478 -0.004458656519767893 -0.0030047929232915166
88 0.004896862039257503 0.0014921721342137722 0.005577522496119632
224 0.000654002754513469 -2.6523707522813943e-05 0.004782679562131988
215 0.0017804006716074501 -0.00026172312087115906 -0.0064550107087028505
295 0.006817495609403208 0.003068568787931684 0.0045000270696498165
24 0.0027312509130590686 -0.0019410854256280206 0.0018954109691804537
336 -0.0022774654507615034 -0.004709507299220178 0.005232488797264298
119 0.00967666893457636 -0.026321667626214604 0.009729288230875627
39 -0.0012324797914252021 0.0038950208694265498 -0.0023033899559653957
135 -0.023297190059510368 0.016621794689551744 0.026612648568007016
64 -0.002108160479627025 -0.003336368231846137 -0.002079827212146898
312 -0.006761065117128735 -0.0015614251675076826 0.0055093673036188335
56 -0.005397792923219798 0.001999324485740387 -0.0013514041338959046
200 0.0018675382154784397 -0.005037246560180404 0.006857423719386107
232 -0.004018072730082848 9.121844584143004e-05 0.0057483405312144685
152 0.0022577411711587826 0.001935689191422456 0.010169147807409297
57 0.004497799855005656 0.0013441170076987907 -0.0049935712802399775
225 -0.0011266642305079514 -0.004491018811608915 0.004076037492424149
305 0.0017051192554543152 0.006028591321674431 -0.005356334245566109
49 0.004310093630366828 0.0023772939133661557 0.000297005957726604
145 0.009300896293568006 0.007350976780657444 0.010880201154344713
193 0.004502772479496466 -0.006085241248615484 -0.0032415802571390353
114 -0.01534681545086759 0.016241814018866173 0.0005651495381921675
34 0.004785217192287085 -0.0008870738311908635 -0.002924733333063688
130 -0.015924339233934364 -0.009054630040301695 0.02564383889161087
17 0.0018502049880531593 0.0013866468362989774 -0.001044006753592194
329 -0.0005104122116613048 -0.003002472964734774 0.0012931965160975414
77 -0.0029739177643142837 0.00509120516453535 -0.0006904996909654035
173 -0.01593180617201262 -0.012139522406977764 -0.017516235240810862
205 -0.004989274383473402 -0.0049996074433716 0.0036959029387764134
25 -0.001074237808999977 -0.0024369041468252054 0.0001890696295697314
121 -0.009320056698815929 0.01322216273621906 -0.016149423361760812
41 -0.002462348460646378 0.0012443176308866125 -0.0018962873638115716
233 -0.00506662663247263 -0.004310936413394123 0.0020836988068352325
257 -0.006594851647029618 -0.005365123951409906 0.006160803205974654
177 0.012147510132044289 0.007518183002682305 0.006828611370437459
144 0.023872863001532317 0.018471851953329215 0.008755026752442226
101 -0.008400340424619098 -0.02724479908764329 -0.008720828074816629
137 0.006499912328491948 0.0029465152104645393 -0.02701518716416765
100 0.009815466961995437 -0.012262414094877744 -0.022137943738271434
32 0.0022231937654772164 0.00044056309614034014 0.0002581559691312956
240 0.0020675257929798014 -0.006321439555153108 -0.003045049054760779
48 0.00471846676111303 0.0009459889910287635 -0.003089309467895197
264 -0.003974033817785263 0.0055947097004143045 0.006596009493586162
184 0.02744011230450645 -0.026651801341529884 -0.004782143426343864
76 0.004872976993832609 0.005433446565326121 -0.004469560707346179
172 0.017355922743636152 0.020996825663782054 -0.007692533664473631
128 0.014843620203025907 -0.0052877325447883575 0.02159962312629276
204 0.0024147086853746396 -0.006102363415218955 0.005675172231538902
8 -0.0031772321164094397 0.002376642203257533 0.0052593660074032635
256 -0.006671134838224001 -0.0018043564496802815 0.005569160473531812
280 0.003160858452858528 0.0028582620916873364 0.001917100738705592
96 -0.004319525523409144 -0.0031595099687383318 -0.0026422825569660637
192 0.006172951227805618 0.006851259997059871 -0.0012858219696218465
304 -0.002909813007787729 0.005845195330280949 0.006349735736978677
153 -0.01658970431973113 -0.0005833006848107045 -0.0013516015737990007
284 -0.0060028976609589986 -0.0025402249133305906 -0.00013016669880596353
328 0.002361749744220947 0.00679953638656098 -0.003470428504319274
320 0.0039567487487274615 0.0001250721840676314 -0.0045218463551341005
321 0.0012405749738314154 0.007241383911710842 -0.0027467925005396003
313 0.005174594954917002 -0.00041746841858650036 -0.008034723785129155
160 0.006700128364287021 0.029847128214800265 0.004949044805704617
185 0.01721653329715504 -0.012231945186376289 -0.013551212205968813
285 -0.007021651205591434 -0.0015369547218927074 0.007070756696668817
249 -0.0025863528679697235 -0.004144953962838654 0.0022072247568275132
1 0.004867970925765318 -0.003710345002880494 -0.004954412571008478
89 0.0051131455056088754 -0.0006898797820553968 -0.0016336398652956287
273 -0.002007824612625128 0.00616872069040582 0.0045420091401019895
297 0.00043218474412702997 0.0003955939722423634 0.002709850147699676
