LAMMPS data file via write_data, version 22 Jul 2025, timestep = 1042, units = real

9 atoms
2 atom types

0 4.91496618 xlo xhi
0 4.256485570621 ylo yhi
0 5.43130114 zlo zhi
-2.45748309 0 0 xy xz yz

Masses

1 28.085
2 15.999

Atoms # charge

4 2 -2 0.13085543251282328 1.9989439636400923 3.867077163094739 0 0 0
5 2 -2 0.8637004222151214 3.2698131341092105 0.35931659944327826 0 0 0
6 2 -2 -0.992103512347441 3.0865970090669648 2.449684209582432 0 0 0
1 1 4 1.2166492231257247 1.8950843240825421 4.9756747173896 0 0 -1
3 1 4 2.68613928486555 0.08504963590232965 2.93317542190387 0 0 0
2 1 4 2.5660080167561397 3.092958991985448 3.2691401473323762 -1 0 0
7 2 -2 1.8287428987160972 0.7001388367138962 0.8718123188907763 0 0 0
8 2 -2 2.7730329617337643 0.936541724937447 3.689825290170315 0 0 0
9 2 -2 2.506536744435069 2.5968852701608163 5.069478035269231 0 0 0

Velocities

4 -0.001773577806042627 0.002405581272241324 -0.003979218317161106
5 0.0008416524475970707 -0.003749128233436664 -0.0028423792848884088
6 0.000956573890091537 -0.00024066431855866198 -2.875967101816748e-05
1 0.003224729399921398 -0.002735394036690511 -0.00301732596837937
3 0.0030076325802276733 0.004704515705611398 -0.001245343902287254
2 -0.004587186388961843 -0.0008247549697540939 0.00428505665719055
7 0.004608744316793374 -0.004480797517475588 -0.0029802220938922094
8 -0.004667817313932046 0.0032452636668496185 0.007146972978463572
9 -0.002595768757712608 0.0010051671971608256 0.002817186361016616
